NAME : portcgen-25-16
COMMENT : portcgen N=25, seed=16
TYPE : TSP
DIMENSION : 25
EDGE_WEIGHT_TYPE : EUC_2D
NODE_COORD_SECTION
1 -57574 -76180
2 -130893 -188764
3 267543 -66892
4 -229640 189448
5 142269 7248
6 -397576 174534
7 88050 209286
8 100305 253894
9 -100985 -119686
10 -73702 411142
11 54733 -106078
12 58617 -163209
13 -409001 142375
14 507611 -53639
15 169428 -174203
16 129022 -51898
17 204102 -58647
18 -174591 37205
19 -166368 84576
20 -93174 -205349
21 197658 56179
22 296196 -399662
23 77916 -109849
24 166086 168038
25 -34724 -44902
